(set-logic ALL)
(declare-fun var0 () String)
(assert (str.in_re var0 (re.++ (re.+ (re.* (str.to_re "0"))) (re.++ (re.* (re.+ (str.to_re "11"))) (re.++ (re.+ (re.* (str.to_re "2"))) (re.++ (re.union (re.+ (str.to_re "33")) (re.+ (str.to_re "4"))) (re.++ (re.+ (re.+ (str.to_re "5"))) (re.++ (re.+ (re.* (str.to_re "666"))) (re.++ (re.+ (re.+ (str.to_re "77"))) (re.++ (re.+ (re.* (str.to_re "888"))) (re.++ (re.* (re.+ (str.to_re "99"))) (re.++ (re.union (re.* (str.to_re "aaa")) (re.* (str.to_re "b"))) (re.++ (re.union (re.* (str.to_re "c")) (re.* (str.to_re "ddd"))) (re.++ (re.+ (re.* (str.to_re "e"))) (re.++ (re.+ (re.* (str.to_re "f"))) (re.++ (re.+ (re.+ (str.to_re "g"))) (re.++ (re.+ (re.union (str.to_re "hh") (str.to_re "ii"))) (re.++ (re.union (re.union (str.to_re "jj") (str.to_re "kk")) (re.union (str.to_re "ll") (str.to_re "m"))) (re.++ (re.+ (re.+ (str.to_re "nnn"))) (re.++ (re.* (re.union (str.to_re "o") (str.to_re "p"))) (re.++ (re.union (re.+ (str.to_re "qqq")) (re.+ (str.to_re "rrr"))) (re.++ (re.* (re.* (str.to_re "s"))) (re.++ (re.+ (re.+ (str.to_re "t"))) (re.++ (re.+ (re.+ (str.to_re "u"))) (re.++ (re.* (re.union (str.to_re "vvv") (str.to_re "ww"))) (re.++ (re.+ (re.+ (str.to_re "xx"))) (re.++ (re.union (re.* (str.to_re "yyy")) (re.* (str.to_re "zz"))) (re.++ (re.+ (re.* (str.to_re "AAA"))) (re.++ (re.+ (re.* (str.to_re "B"))) (re.++ (re.+ (re.union (str.to_re "CCC") (str.to_re "D"))) (re.++ (re.* (re.+ (str.to_re "EEE"))) (re.++ (re.+ (re.union (str.to_re "FF") (str.to_re "GGG"))) (re.++ (re.+ (re.union (str.to_re "H") (str.to_re "II"))) (re.++ (re.* (re.+ (str.to_re "JJ"))) (re.++ (re.+ (re.* (str.to_re "KK"))) (re.++ (re.union (re.union (str.to_re "LL") (str.to_re "MMM")) (re.union (str.to_re "N") (str.to_re "OOO"))) (re.++ (re.* (re.union (str.to_re "PP") (str.to_re "QQQ"))) (re.++ (re.union (re.union (str.to_re "RRR") (str.to_re "SS")) (re.union (str.to_re "TT") (str.to_re "UU"))) (re.++ (re.* (re.union (str.to_re "V") (str.to_re "WW"))) (re.++ (re.* (re.* (str.to_re "XX"))) (re.++ (re.+ (re.* (str.to_re "YY"))) (re.++ (re.* (re.+ (str.to_re "Z"))) (re.++ (re.union (re.+ (str.to_re "!")) (re.+ (str.to_re """"""))) (re.++ (re.union (re.+ (str.to_re "##")) (re.+ (str.to_re "$"))) (re.++ (re.* (re.+ (str.to_re "%"))) (re.++ (re.* (re.union (str.to_re "&&&") (str.to_re "''"))) (re.++ (re.+ (re.union (str.to_re "(((") (str.to_re ")"))) (re.++ (re.union (re.+ (str.to_re "**")) (re.+ (str.to_re "+"))) (re.++ (re.union (re.* (str.to_re ",,,")) (re.* (str.to_re "---"))) (re.++ (re.union (re.+ (str.to_re ".")) (re.+ (str.to_re "///"))) (re.++ (re.union (re.* (str.to_re ":")) (re.* (str.to_re ";;;"))) (re.++ (re.union (re.union (str.to_re "<<") (str.to_re "==")) (re.union (str.to_re ">>>") (str.to_re "?"))) (re.++ (re.+ (re.union (str.to_re "@") (str.to_re "[[["))) (re.++ (re.* (re.+ (str.to_re "\\\\\\"))) (re.++ (re.union (re.+ (str.to_re "]]")) (re.+ (str.to_re "^^^"))) (re.++ (re.+ (re.* (str.to_re "_"))) (re.++ (re.* (re.+ (str.to_re "```"))) (re.++ (re.+ (re.* (str.to_re "{"))) (re.++ (re.+ (re.* (str.to_re "||"))) (re.++ (re.union (re.* (str.to_re "}}")) (re.* (str.to_re "~"))) (re.++ (re.union (re.* (str.to_re "0")) (re.* (str.to_re "111"))) (re.++ (re.* (re.union (str.to_re "2") (str.to_re "3"))) (re.++ (re.* (re.+ (str.to_re "4"))) (re.++ (re.union (re.* (str.to_re "55")) (re.* (str.to_re "666"))) (re.++ (re.union (re.* (str.to_re "77")) (re.* (str.to_re "88"))) (re.++ (re.* (re.union (str.to_re "9") (str.to_re "aaa"))) (re.++ (re.union (re.+ (str.to_re "bb")) (re.+ (str.to_re "c"))) (re.++ (re.union (re.union (str.to_re "d") (str.to_re "ee")) (re.union (str.to_re "ff") (str.to_re "g"))) (re.++ (re.+ (re.* (str.to_re "hhh"))) (re.++ (re.* (re.+ (str.to_re "iii"))) (re.++ (re.union (re.+ (str.to_re "jjj")) (re.+ (str.to_re "kkk"))) (re.++ (re.union (re.+ (str.to_re "l")) (re.+ (str.to_re "m"))) (re.++ (re.+ (re.union (str.to_re "nn") (str.to_re "o"))) (re.++ (re.* (re.union (str.to_re "pp") (str.to_re "q"))) (re.++ (re.union (re.union (str.to_re "r") (str.to_re "s")) (re.union (str.to_re "tt") (str.to_re "uu"))) (re.++ (re.+ (re.+ (str.to_re "vv"))) (re.++ (re.union (re.* (str.to_re "w")) (re.* (str.to_re "x"))) (re.++ (re.* (re.+ (str.to_re "y"))) (re.++ (re.union (re.+ (str.to_re "z")) (re.+ (str.to_re "AAA"))) (re.++ (re.* (re.union (str.to_re "BBB") (str.to_re "CC"))) (re.++ (re.* (re.+ (str.to_re "DDD"))) (re.++ (re.union (re.union (str.to_re "EE") (str.to_re "F")) (re.union (str.to_re "GGG") (str.to_re "HHH"))) (re.++ (re.union (re.+ (str.to_re "I")) (re.+ (str.to_re "JJJ"))) (re.++ (re.union (re.+ (str.to_re "KK")) (re.+ (str.to_re "LLL"))) (re.++ (re.+ (re.union (str.to_re "MM") (str.to_re "N"))) (re.++ (re.union (re.+ (str.to_re "O")) (re.+ (str.to_re "PPP"))) (re.++ (re.union (re.+ (str.to_re "QQQ")) (re.+ (str.to_re "R"))) (re.++ (re.+ (re.* (str.to_re "S"))) (re.++ (re.* (re.+ (str.to_re "TTT"))) (re.++ (re.+ (re.* (str.to_re "UU"))) (re.++ (re.* (re.+ (str.to_re "VV"))) (re.++ (re.* (re.+ (str.to_re "WW"))) (re.++ (re.* (re.+ (str.to_re "X"))) (re.++ (re.union (re.+ (str.to_re "YY")) (re.+ (str.to_re "ZZ"))) (re.++ (re.union (re.union (str.to_re "!!") (str.to_re """""""")) (re.union (str.to_re "##") (str.to_re "$"))) (re.++ (re.+ (re.union (str.to_re "%%") (str.to_re "&"))) (re.++ (re.union (re.* (str.to_re "'")) (re.* (str.to_re "("))) (re.++ (re.* (re.* (str.to_re ")))"))) (re.++ (re.* (re.union (str.to_re "*") (str.to_re "+"))) (re.++ (re.* (re.union (str.to_re ",") (str.to_re "---"))) (re.++ (re.+ (re.* (str.to_re "."))) (re.++ (re.+ (re.+ (str.to_re "//"))) (re.++ (re.union (re.+ (str.to_re ":")) (re.+ (str.to_re ";;"))) (re.++ (re.union (re.union (str.to_re "<<<") (str.to_re "==")) (re.union (str.to_re ">>>") (str.to_re "???"))) (re.++ (re.+ (re.union (str.to_re "@@@") (str.to_re "[["))) (re.++ (re.* (re.union (str.to_re "\\\\\\") (str.to_re "]]]"))) (re.++ (re.+ (re.* (str.to_re "^"))) (re.++ (re.+ (re.+ (str.to_re "___"))) (re.++ (re.+ (re.union (str.to_re "`") (str.to_re "{"))) (re.++ (re.* (re.* (str.to_re "|"))) (re.++ (re.* (re.* (str.to_re "}"))) (re.++ (re.+ (re.+ (str.to_re "~~"))) (re.++ (re.+ (re.+ (str.to_re "000"))) (re.++ (re.* (re.union (str.to_re "11") (str.to_re "222"))) (re.++ (re.* (re.* (str.to_re "33"))) (re.++ (re.+ (re.+ (str.to_re "444"))) (re.++ (re.* (re.+ (str.to_re "555"))) (re.++ (re.union (re.union (str.to_re "66") (str.to_re "77")) (re.union (str.to_re "88") (str.to_re "9"))) (re.++ (re.* (re.+ (str.to_re "aa"))) (re.++ (re.+ (re.union (str.to_re "bbb") (str.to_re "c"))) (re.++ (re.+ (re.union (str.to_re "dd") (str.to_re "e"))) (re.++ (re.union (re.* (str.to_re "fff")) (re.* (str.to_re "gg"))) (re.++ (re.union (re.* (str.to_re "hh")) (re.* (str.to_re "ii"))) (re.++ (re.union (re.* (str.to_re "jjj")) (re.* (str.to_re "kk"))) (re.++ (re.union (re.+ (str.to_re "l")) (re.+ (str.to_re "mmm"))) (re.++ (re.+ (re.+ (str.to_re "nnn"))) (re.++ (re.union (re.union (str.to_re "ooo") (str.to_re "pp")) (re.union (str.to_re "qqq") (str.to_re "rrr"))) (re.++ (re.union (re.union (str.to_re "sss") (str.to_re "tt")) (re.union (str.to_re "u") (str.to_re "vv"))) (re.++ (re.* (re.* (str.to_re "w"))) (re.++ (re.* (re.union (str.to_re "xxx") (str.to_re "y"))) (re.++ (re.+ (re.* (str.to_re "zzz"))) (re.++ (re.* (re.+ (str.to_re "A"))) (re.++ (re.* (re.union (str.to_re "BBB") (str.to_re "CCC"))) (re.++ (re.union (re.+ (str.to_re "DDD")) (re.+ (str.to_re "E"))) (re.++ (re.* (re.union (str.to_re "F") (str.to_re "GG"))) (re.++ (re.+ (re.* (str.to_re "HHH"))) (re.++ (re.+ (re.+ (str.to_re "I"))) (re.++ (re.+ (re.* (str.to_re "JJJ"))) (re.++ (re.* (re.+ (str.to_re "KK"))) (re.++ (re.* (re.* (str.to_re "LL"))) (re.++ (re.* (re.+ (str.to_re "MM"))) (re.++ (re.+ (re.+ (str.to_re "NNN"))) (re.++ (re.* (re.union (str.to_re "O") (str.to_re "PP"))) (re.++ (re.* (re.* (str.to_re "QQ"))) (re.++ (re.* (re.union (str.to_re "RRR") (str.to_re "S"))) (re.++ (re.union (re.union (str.to_re "TTT") (str.to_re "U")) (re.union (str.to_re "V") (str.to_re "WWW"))) (re.++ (re.* (re.union (str.to_re "XXX") (str.to_re "YYY"))) (re.++ (re.+ (re.* (str.to_re "Z"))) (re.++ (re.* (re.* (str.to_re "!!"))) (re.++ (re.* (re.union (str.to_re """""") (str.to_re "###"))) (re.++ (re.* (re.union (str.to_re "$$") (str.to_re "%%"))) (re.++ (re.union (re.* (str.to_re "&&&")) (re.* (str.to_re "'"))) (re.++ (re.union (re.+ (str.to_re "(")) (re.+ (str.to_re ")))"))) (re.++ (re.union (re.union (str.to_re "***") (str.to_re "+")) (re.union (str.to_re ",,,") (str.to_re "--"))) (re.++ (re.* (re.* (str.to_re ".."))) (re.++ (re.union (re.+ (str.to_re "//")) (re.+ (str.to_re ":"))) (re.++ (re.* (re.union (str.to_re ";;;") (str.to_re "<"))) (re.++ (re.+ (re.* (str.to_re "="))) (re.++ (re.union (re.union (str.to_re ">") (str.to_re "?")) (re.union (str.to_re "@") (str.to_re "["))) (re.++ (re.* (re.union (str.to_re "\\") (str.to_re "]]"))) (re.++ (re.+ (re.+ (str.to_re "^^"))) (re.++ (re.* (re.* (str.to_re "___"))) (re.++ (re.union (re.* (str.to_re "`")) (re.* (str.to_re "{{"))) (re.++ (re.* (re.* (str.to_re "|"))) (re.++ (re.union (re.union (str.to_re "}}") (str.to_re "~")) (re.union (str.to_re "00") (str.to_re "1"))) (re.++ (re.+ (re.union (str.to_re "222") (str.to_re "33"))) (re.++ (re.* (re.union (str.to_re "4") (str.to_re "5"))) (re.++ (re.+ (re.+ (str.to_re "666"))) (re.++ (re.* (re.+ (str.to_re "77"))) (re.++ (re.+ (re.+ (str.to_re "888"))) (re.++ (re.* (re.union (str.to_re "99") (str.to_re "aa"))) (re.++ (re.+ (re.* (str.to_re "bbb"))) (re.++ (re.* (re.* (str.to_re "ccc"))) (re.++ (re.+ (re.+ (str.to_re "d"))) (re.++ (re.* (re.+ (str.to_re "eee"))) (re.++ (re.union (re.+ (str.to_re "fff")) (re.+ (str.to_re "gg"))) (re.++ (re.+ (re.union (str.to_re "h") (str.to_re "i"))) (re.++ (re.union (re.+ (str.to_re "jj")) (re.+ (str.to_re "kk"))) (re.++ (re.union (re.* (str.to_re "l")) (re.* (str.to_re "m"))) (re.++ (re.+ (re.* (str.to_re "nn"))) (re.++ (re.union (re.+ (str.to_re "ooo")) (re.+ (str.to_re "pp"))) (re.++ (re.+ (re.union (str.to_re "qqq") (str.to_re "rrr"))) (re.++ (re.* (re.+ (str.to_re "s"))) (re.++ (re.union (re.* (str.to_re "ttt")) (re.* (str.to_re "u"))) (re.++ (re.* (re.* (str.to_re "v"))) (re.++ (re.union (re.union (str.to_re "ww") (str.to_re "x")) (re.union (str.to_re "yyy") (str.to_re "zzz"))) (re.++ (re.union (re.* (str.to_re "A")) (re.* (str.to_re "BB"))) (re.++ (re.+ (re.union (str.to_re "CC") (str.to_re "D"))) (re.++ (re.union (re.union (str.to_re "E") (str.to_re "F")) (re.union (str.to_re "GG") (str.to_re "HHH"))) (re.++ (re.* (re.union (str.to_re "I") (str.to_re "JJ"))) (re.++ (re.union (re.* (str.to_re "KK")) (re.* (str.to_re "LLL"))) (re.++ (re.* (re.* (str.to_re "MMM"))) (re.++ (re.union (re.union (str.to_re "N") (str.to_re "O")) (re.union (str.to_re "PP") (str.to_re "QQ"))) (re.++ (re.+ (re.+ (str.to_re "RRR"))) (re.++ (re.+ (re.union (str.to_re "SS") (str.to_re "T"))) (re.++ (re.union (re.union (str.to_re "U") (str.to_re "V")) (re.union (str.to_re "WWW") (str.to_re "XXX"))) (re.++ (re.+ (re.+ (str.to_re "YY"))) (re.++ (re.union (re.* (str.to_re "ZZZ")) (re.* (str.to_re "!!"))) (re.* (re.union (str.to_re """""""") (str.to_re "##")))))))))))))))))))))))))))))))))))))))))))))))))))))))))))))))))))))))))))))))))))))))))))))))))))))))))))))))))))))))))))))))))))))))))))))))))))))))))))))))))))))))))))))))))))))))))))))))))))))))))
(check-sat)